SCIP version 5.0.0 [precision: 8 byte] [memory: block] [mode: optimized] [LP solver: NONE] [GitHash: 3bbd232]
Copyright (C) 2002-2017 Konrad-Zuse-Zentrum fuer Informationstechnik Berlin (ZIB)

External codes: 
  Readline EditLine w  GNU library for command line editing (gnu.org/s/readline)
  CppAD 20160000.1     Algorithmic Differentiation of C++ algorithms developed by B. Bell (www.coin-or.org/CppAD)
  ZLIB 1.2.5           General purpose compression library by J. Gailly and M. Adler (zlib.net)
  GMP 6.1.2            GNU Multiple Precision Arithmetic Library developed by T. Granlund (gmplib.org)

user parameter file <scip.set> not found - using default parameters

read problem <../../Split_data/output/biodeg/7/0_sample_biodeg.logreg>
============

File name	:	../../Split_data/output/biodeg/7/0_sample_biodeg.logreg
Problem name 	:	0_sample_biodeg
Number of data	:	844
Number of var	:	41
The given data has linear independence

[dim=1] time: 0.037475
[dim=2] time: 0.072582
[dim=3] time: 0.109951
[dim=4] time: 0.145351
[dim=5] time: 0.176014
[dim=6] time: 0.209314
[dim=7] time: 0.237301
[dim=8] time: 0.265151
[dim=9] time: 0.292976
[dim=10] time: 0.320044
[dim=11] time: 0.346615
[dim=12] time: 0.371193
[dim=13] time: 0.396387
[dim=14] time: 0.421472
[dim=15] time: 0.447611
[dim=16] time: 0.471929
[dim=17] time: 0.496719
[dim=18] time: 0.518677
[dim=19] time: 0.546433
[dim=20] time: 0.568991
[dim=21] time: 0.596706
[dim=22] time: 0.626601
[dim=23] Time of forward = 0.646444sec.
AIC: 522.102
k: 22

[dim=41] time: 0.182533
[dim=40] time: 0.239257
[dim=39] time: 0.298349
[dim=38] time: 0.353064
[dim=37] time: 0.397848
[dim=36] time: 0.43541
[dim=35] time: 0.486683
[dim=34] time: 0.544382
[dim=33] time: 0.598275
[dim=32] time: 0.636985
[dim=31] time: 0.676565
[dim=30] time: 0.715598
[dim=29] time: 0.755617
[dim=28] time: 0.795628
[dim=27] time: 0.830172
[dim=26] time: 0.865801
[dim=25] time: 0.899334
[dim=24] time: 0.930532
[dim=23] Time of backward = 0.961573sec.
AIC: 520.935
k: 24
